proyfinal/src/viki/013/experimentInOfficeAgust.take6.output/b55604d6-7d80-4de4-8496-21be67d13649.als.dat
{'cnf.clauses': '118081',
 'cnf.totvars': '69608',
 'conflict literals': '11',
 'conflicts': '7',
 'decisions': '2795',
 'memused.mb': '17.38',
 'outcome': 'UNSAT',
 'propagations': '22658',
 'restarts': '1',
 'solver.msecs': 30,
 'task.msecs': 79}
