proyfinal/src/viki/013/experimentInOfficeAgust.take6.output/b55604d6-7d80-4de4-8496-21be67d13649.als.out
Reading from standard input... Use '--help' for help.
============================[ Problem Statistics ]=============================
|                                                                             |
|  Number of variables:         69608                                         |
|  Number of clauses:          118081                                         |
|  Parse time:                   0.02 s                                       |
|                                                                             |
============================[ Search Statistics ]==============================
| Conflicts |          ORIGINAL         |          LEARNT          | Progress |
|           |    Vars  Clauses Literals |    Limit  Clauses Lit/Cl |          |
===============================================================================
===============================================================================
restarts              : 1
conflicts             : 7              (230 /sec)
decisions             : 2795           (0.00 % random) (91745 /sec)
propagations          : 22658          (743739 /sec)
conflict literals     : 11             (0.00 % deleted)
Memory used           : 17.38 MB
CPU time              : 0.030465 s

UNSATISFIABLE
